10 10 10
55 80 60
50 40 20
125 115 65
50 50 50
175 150 75
0 35 80
95 95 40
150 100 75
200 185 150
135 140 110
20 50 50
60 80 100
60 35 30
245 245 245
120 70 10
160 110 45
115 70 20
120 120 120
170 170 170
20 20 20